p cnf 312 747
1 0
2 0
3 0
4 0
5 0
6 0
7 8 0
9 10 0
11 12 0
13 14 0
15 16 0
17 18 0
19 20 0
21 22 0
23 24 0
25 0
26 0
-27 25 0
-28 27 0
-29 28 0
-30 29 0
-31 30 0
-32 31 0
-33 32 0
-34 33 0
-35 34 0
-36 35 0
-37 36 0
-38 37 0
-39 38 0
-40 39 0
-41 40 0
-42 43 0
-43 44 0
-44 45 0
-45 46 0
-46 47 0
-47 48 0
-48 49 0
-49 50 0
-50 51 0
-51 26 0
-26 52 0
-52 53 0
-53 54 0
-54 55 0
-55 56 0
-25 -43 0
-27 -44 0
-28 -45 0
-29 -46 0
-30 -47 0
-31 -48 0
-32 -49 0
-33 -50 0
-34 -51 0
-35 -26 0
-36 -52 0
-37 -53 0
-38 -54 0
-39 -55 0
-40 -56 0
-25 -1 57 0
-25 -7 58 0
-25 -9 59 0
-27 -1 60 0
-27 -7 61 0
-27 -9 62 0
-28 -1 63 0
-28 -7 64 0
-28 -9 65 0
-29 -1 66 0
-29 -7 67 0
-29 -9 68 0
-30 -1 69 0
-30 -7 70 0
-30 -9 71 0
-31 -1 72 0
-31 -7 73 0
-31 -9 74 0
-32 -1 75 0
-32 -7 76 0
-32 -9 77 0
-33 -1 78 0
-33 -7 79 0
-33 -9 80 0
-34 -1 81 0
-34 -7 82 0
-34 -9 83 0
-35 -1 84 0
-35 -7 85 0
-35 -9 86 0
-36 -1 87 0
-36 -7 88 0
-36 -9 89 0
-37 -1 90 0
-37 -7 91 0
-37 -9 92 0
-38 -1 93 0
-38 -7 94 0
-38 -9 95 0
-39 -1 96 0
-39 -7 97 0
-39 -9 98 0
57 0
99 0
-100 101 0
-57 100 0
-60 57 0
-63 60 0
-66 63 0
-69 66 0
-72 69 0
-75 72 0
-78 75 0
-81 78 0
-84 81 0
-87 84 0
-90 87 0
-93 90 0
-96 93 0
-102 103 0
-103 104 0
-104 105 0
-105 106 0
-106 107 0
-107 108 0
-108 109 0
-109 110 0
-110 111 0
-111 112 0
-112 99 0
-99 113 0
-113 114 0
-114 115 0
-115 116 0
-101 -102 0
-100 -103 0
-57 -104 0
-60 -105 0
-63 -106 0
-66 -107 0
-69 -108 0
-72 -109 0
-75 -110 0
-78 -111 0
-81 -112 0
-84 -99 0
-87 -113 0
-90 -114 0
-93 -115 0
-96 -116 0
-101 -2 117 0
-101 -13 118 0
-101 -15 119 0
-100 -2 120 0
-100 -13 121 0
-100 -15 122 0
-57 -2 123 0
-57 -13 124 0
-57 -15 125 0
-60 -2 126 0
-60 -13 127 0
-60 -15 128 0
-63 -2 129 0
-63 -13 130 0
-63 -15 131 0
-66 -2 132 0
-66 -13 133 0
-66 -15 134 0
-69 -2 135 0
-69 -13 136 0
-69 -15 137 0
-72 -2 138 0
-72 -13 139 0
-72 -15 140 0
-75 -2 141 0
-75 -13 142 0
-75 -15 143 0
-78 -2 144 0
-78 -13 145 0
-78 -15 146 0
-81 -2 147 0
-81 -13 148 0
-81 -15 149 0
-84 -2 150 0
-84 -13 151 0
-84 -15 152 0
-87 -2 153 0
-87 -13 154 0
-87 -15 155 0
-90 -2 156 0
-90 -13 157 0
-90 -15 158 0
-93 -2 159 0
-93 -13 160 0
-93 -15 161 0
123 0
162 0
-117 163 0
-120 117 0
-123 120 0
-126 123 0
-129 126 0
-132 129 0
-135 132 0
-138 135 0
-141 138 0
-144 141 0
-147 144 0
-150 147 0
-153 150 0
-156 153 0
-159 156 0
-164 165 0
-165 166 0
-166 167 0
-167 168 0
-168 169 0
-169 170 0
-170 171 0
-171 172 0
-172 173 0
-173 174 0
-174 175 0
-175 176 0
-176 177 0
-177 178 0
-178 162 0
-163 -167 0
-117 -168 0
-120 -169 0
-123 -170 0
-126 -171 0
-129 -172 0
-132 -173 0
-135 -174 0
-138 -175 0
-141 -176 0
-144 -177 0
-147 -178 0
-150 -162 0
-163 -19 179 0
-163 -21 180 0
-117 -19 181 0
-117 -21 182 0
-120 -19 183 0
-120 -21 184 0
-123 -19 185 0
-123 -21 186 0
-126 -19 187 0
-126 -21 188 0
-129 -19 189 0
-129 -21 190 0
-132 -19 191 0
-132 -21 192 0
-135 -19 193 0
-135 -21 194 0
-138 -19 195 0
-138 -21 196 0
-141 -19 197 0
-141 -21 198 0
-144 -19 199 0
-144 -21 200 0
-147 -19 201 0
-147 -21 202 0
203 0
204 0
-205 203 0
-58 205 0
-61 58 0
-64 61 0
-67 64 0
-70 67 0
-73 70 0
-76 73 0
-79 76 0
-82 79 0
-85 82 0
-88 85 0
-91 88 0
-94 91 0
-97 94 0
-206 207 0
-207 208 0
-208 209 0
-209 210 0
-210 211 0
-211 212 0
-212 213 0
-213 214 0
-214 215 0
-215 216 0
-216 204 0
-204 217 0
-217 218 0
-218 219 0
-219 220 0
-203 -208 0
-205 -209 0
-58 -210 0
-61 -211 0
-64 -212 0
-67 -213 0
-70 -214 0
-73 -215 0
-76 -216 0
-79 -204 0
-82 -217 0
-85 -218 0
-88 -219 0
-91 -220 0
-203 -3 221 0
-203 -8 29 0
-203 -11 62 0
-205 -3 179 0
-205 -8 30 0
-205 -11 65 0
-58 -3 181 0
-58 -8 31 0
-58 -11 68 0
-61 -3 183 0
-61 -8 32 0
-61 -11 71 0
-64 -3 185 0
-64 -8 33 0
-64 -11 74 0
-67 -3 187 0
-67 -8 34 0
-67 -11 77 0
-70 -3 189 0
-70 -8 35 0
-70 -11 80 0
-73 -3 191 0
-73 -8 36 0
-73 -11 83 0
-76 -3 193 0
-76 -8 37 0
-76 -11 86 0
-79 -3 195 0
-79 -8 38 0
-79 -11 89 0
-82 -3 197 0
-82 -8 39 0
-82 -11 92 0
-85 -3 199 0
-85 -8 40 0
-85 -11 95 0
-88 -3 201 0
-88 -8 41 0
-88 -11 98 0
221 0
222 0
-223 224 0
-225 223 0
-221 225 0
-179 221 0
-181 179 0
-183 181 0
-185 183 0
-187 185 0
-189 187 0
-191 189 0
-193 191 0
-195 193 0
-197 195 0
-199 197 0
-201 199 0
-226 227 0
-227 228 0
-228 229 0
-229 230 0
-230 231 0
-231 232 0
-232 233 0
-233 234 0
-234 235 0
-235 236 0
-236 237 0
-237 238 0
-238 222 0
-222 239 0
-239 240 0
-224 -227 0
-223 -228 0
-225 -229 0
-221 -230 0
-179 -231 0
-181 -232 0
-183 -233 0
-185 -234 0
-187 -235 0
-189 -236 0
-191 -237 0
-193 -238 0
-195 -222 0
-197 -239 0
-199 -240 0
-224 -4 121 0
-224 -20 120 0
-224 -23 241 0
-223 -4 124 0
-223 -20 123 0
-223 -23 242 0
-225 -4 127 0
-225 -20 126 0
-225 -23 180 0
-221 -4 130 0
-221 -20 129 0
-221 -23 182 0
-179 -4 133 0
-179 -20 132 0
-179 -23 184 0
-181 -4 136 0
-181 -20 135 0
-181 -23 186 0
-183 -4 139 0
-183 -20 138 0
-183 -23 188 0
-185 -4 142 0
-185 -20 141 0
-185 -23 190 0
-187 -4 145 0
-187 -20 144 0
-187 -23 192 0
-189 -4 148 0
-189 -20 147 0
-189 -23 194 0
-191 -4 151 0
-191 -20 150 0
-191 -23 196 0
-193 -4 154 0
-193 -20 153 0
-193 -23 198 0
-195 -4 157 0
-195 -20 156 0
-195 -23 200 0
-197 -4 160 0
-197 -20 159 0
-197 -23 202 0
130 0
243 0
-118 244 0
-121 118 0
-124 121 0
-127 124 0
-130 127 0
-133 130 0
-136 133 0
-139 136 0
-142 139 0
-145 142 0
-148 145 0
-151 148 0
-154 151 0
-157 154 0
-160 157 0
-245 246 0
-246 247 0
-247 248 0
-248 249 0
-249 250 0
-250 251 0
-251 252 0
-252 253 0
-253 254 0
-254 255 0
-255 256 0
-256 257 0
-257 258 0
-258 259 0
-259 243 0
-244 -246 0
-118 -247 0
-121 -248 0
-124 -249 0
-127 -250 0
-130 -251 0
-133 -252 0
-136 -253 0
-139 -254 0
-142 -255 0
-145 -256 0
-148 -257 0
-151 -258 0
-154 -259 0
-157 -243 0
-244 -14 57 0
-244 -17 122 0
-118 -14 60 0
-118 -17 125 0
-121 -14 63 0
-121 -17 128 0
-124 -14 66 0
-124 -17 131 0
-127 -14 69 0
-127 -17 134 0
-130 -14 72 0
-130 -17 137 0
-133 -14 75 0
-133 -17 140 0
-136 -14 78 0
-136 -17 143 0
-139 -14 81 0
-139 -17 146 0
-142 -14 84 0
-142 -17 149 0
-145 -14 87 0
-145 -17 152 0
-148 -14 90 0
-148 -17 155 0
-151 -14 93 0
-151 -17 158 0
-154 -14 96 0
-154 -17 161 0
260 0
261 0
-262 260 0
-241 262 0
-242 241 0
-180 242 0
-182 180 0
-184 182 0
-186 184 0
-188 186 0
-190 188 0
-192 190 0
-194 192 0
-196 194 0
-198 196 0
-200 198 0
-202 200 0
-263 264 0
-264 265 0
-265 266 0
-266 267 0
-267 268 0
-268 269 0
-269 261 0
-261 270 0
-270 271 0
-271 272 0
-272 273 0
-273 274 0
-274 275 0
-275 276 0
-276 277 0
-260 -266 0
-262 -267 0
-241 -268 0
-242 -269 0
-180 -261 0
-182 -270 0
-184 -271 0
-186 -272 0
-188 -273 0
-190 -274 0
-192 -275 0
-194 -276 0
-196 -277 0
-260 -5 128 0
-260 -22 126 0
-260 -24 179 0
-262 -5 131 0
-262 -22 129 0
-262 -24 181 0
-241 -5 134 0
-241 -22 132 0
-241 -24 183 0
-242 -5 137 0
-242 -22 135 0
-242 -24 185 0
-180 -5 140 0
-180 -22 138 0
-180 -24 187 0
-182 -5 143 0
-182 -22 141 0
-182 -24 189 0
-184 -5 146 0
-184 -22 144 0
-184 -24 191 0
-186 -5 149 0
-186 -22 147 0
-186 -24 193 0
-188 -5 152 0
-188 -22 150 0
-188 -24 195 0
-190 -5 155 0
-190 -22 153 0
-190 -24 197 0
-192 -5 158 0
-192 -22 156 0
-192 -24 199 0
-194 -5 161 0
-194 -22 159 0
-194 -24 201 0
128 0
278 0
-119 279 0
-122 119 0
-125 122 0
-128 125 0
-131 128 0
-134 131 0
-137 134 0
-140 137 0
-143 140 0
-146 143 0
-149 146 0
-152 149 0
-155 152 0
-158 155 0
-161 158 0
-280 281 0
-281 282 0
-282 283 0
-283 284 0
-284 285 0
-285 286 0
-286 287 0
-287 288 0
-288 289 0
-289 278 0
-278 290 0
-290 291 0
-291 292 0
-292 293 0
-293 294 0
-279 -282 0
-119 -283 0
-122 -284 0
-125 -285 0
-128 -286 0
-131 -287 0
-134 -288 0
-137 -289 0
-140 -278 0
-143 -290 0
-146 -291 0
-149 -292 0
-152 -293 0
-155 -294 0
-279 -6 62 0
-279 -16 60 0
-279 -18 124 0
-119 -6 65 0
-119 -16 63 0
-119 -18 127 0
-122 -6 68 0
-122 -16 66 0
-122 -18 130 0
-125 -6 71 0
-125 -16 69 0
-125 -18 133 0
-128 -6 74 0
-128 -16 72 0
-128 -18 136 0
-131 -6 77 0
-131 -16 75 0
-131 -18 139 0
-134 -6 80 0
-134 -16 78 0
-134 -18 142 0
-137 -6 83 0
-137 -16 81 0
-137 -18 145 0
-140 -6 86 0
-140 -16 84 0
-140 -18 148 0
-143 -6 89 0
-143 -16 87 0
-143 -18 151 0
-146 -6 92 0
-146 -16 90 0
-146 -18 154 0
-149 -6 95 0
-149 -16 93 0
-149 -18 157 0
-152 -6 98 0
-152 -16 96 0
-152 -18 160 0
74 0
295 0
-296 297 0
-59 296 0
-62 59 0
-65 62 0
-68 65 0
-71 68 0
-74 71 0
-77 74 0
-80 77 0
-83 80 0
-86 83 0
-89 86 0
-92 89 0
-95 92 0
-98 95 0
-298 299 0
-299 300 0
-300 301 0
-301 302 0
-302 303 0
-303 304 0
-304 305 0
-305 306 0
-306 307 0
-307 308 0
-308 309 0
-309 310 0
-310 311 0
-311 312 0
-312 295 0
-297 -302 0
-296 -303 0
-59 -304 0
-62 -305 0
-65 -306 0
-68 -307 0
-71 -308 0
-74 -309 0
-77 -310 0
-80 -311 0
-83 -312 0
-86 -295 0
-297 -10 31 0
-297 -12 67 0
-296 -10 32 0
-296 -12 70 0
-59 -10 33 0
-59 -12 73 0
-62 -10 34 0
-62 -12 76 0
-65 -10 35 0
-65 -12 79 0
-68 -10 36 0
-68 -12 82 0
-71 -10 37 0
-71 -12 85 0
-74 -10 38 0
-74 -12 88 0
-77 -10 39 0
-77 -12 91 0
-80 -10 40 0
-80 -12 94 0
-83 -10 41 0
-83 -12 97 0
